39505
1 0 1 0 1 0 1 0 0 0 1 0 0 0 0 1 0 0 0 0 0 0 0 0 0 1 0 1 0 0 
27 6 2 27 2 25 2 27 27 27 4 6 10 15 6 27 6 10 27 0 27 15 2 0 10 27 27 4 6 2 4 4 4 15 27 6 10 6 0 15 6 15 6 4 6 4 15 2 6 10 15 15 0 2 6 6 25 6 27 25 4 0 25 15 10 25 0 10 4 25 27 25 4 6 2 10 10 0 10 15 10 0 6 25 4 10 4 0 27 25 27 4 25 25 0 15 6 6 0 6 6 15 25 27 4 0 4 2 27 15 6 4 27 6 25 15 27 15 6 10 4 6 27 4 6 15 2 25 4 0 25 2 25 10 2 10 15 6 6 10 25 27 6 25 25 15 2 2 27 25 0 0 10 0 15 25 2 15 15 15 15 27 2 0 15 2 2 4 6 15 2 10 6 10 4 0 0 10 4 10 2 2 0 6 25 6 27 10 0 2 2 2 6 4 25 25 15 15 10 6 